NAME: instance_442
TYPE: TSP
DIMENSION: 20
EDGE_WEIGHT_TYPE: EUC_2D
NODE_COORD_SECTION
0 30.64 46.21
1 37.28 64.97
2 78.49 17.84
3 56.24 39.69
4 89.92 79.38
5 71.43 77.70
6 83.21 72.60
7 8.88 24.25
8 11.94 51.04
9 55.34 98.87
10 39.30 36.81
11 29.42 26.22
12 83.59 28.49
13 70.25 89.37
14 58.93 65.44
15 77.49 69.79
16 41.20 73.59
17 18.40 47.66
18 17.97 97.33
19 0.94 85.60
EOF
